src/problems/pwi1-supply.txt
# initial state

1,  0,  0,  0,  0,  0,  0,  0,  0,  0,  0,  0,  0

# task conditions

   1,  0,  0,  0,  0,  0,  0,  0,  0,  0,  0,  0,  0
   1,  1,  1,  0,  0,  1, -1, -1, -1, -1,  0,  1, -1
   1,  1,  1,  1,  0,  1, -1, -1, -1, -1,  0,  1, -1
   1,  1,  0, -1, -1,  1,  0,  0,  0,  0,  0,  1, -1
   1,  1,  1, -1, -1,  1,  1,  0,  0,  0,  0,  1, -1
   1,  1,  1, -1, -1,  1,  1,  1,  0,  0,  0,  1, -1
   1,  1,  1,  1,  1,  1,  1,  1,  1,  0,  0,  1, -1
   1,  1,  1, -1, -1, -1,  1,  1,  1,  1,  0,  1, -1
   1,  1,  0,  0,  0,  0,  0,  0,  0,  0,  0,  0,  0
   1,  1,  0,  0,  0,  1,  0,  0,  0,  0,  0,  1,  0
   1,  1,  0,  0,  0,  0,  0,  0,  0,  0,  0,  1, -1
   1,  1,  0,  0,  0,  1,  1,  0,  0,  0,  0,  1, -1


# task effects

  -1,  1, -1, -1, -1, -1, -1, -1, -1, -1, -1, -1, -1
  -1, -1, -1,  1, -1, -1, -1, -1, -1, -1, -1, -1, -1
  -1, -1, -1, -1,  1, -1, -1, -1, -1, -1, -1, -1, -1
  -1, -1, -1, -1, -1, -1,  1, -1, -1, -1, -1, -1, -1
  -1, -1, -1, -1, -1, -1, -1,  1, -1, -1, -1, -1, -1
  -1, -1, -1, -1, -1, -1, -1, -1,  1, -1, -1, -1, -1
  -1, -1, -1, -1, -1, -1, -1, -1, -1,  1, -1, -1, -1
  -1, -1, -1, -1, -1, -1, -1, -1, -1, -1,  1, -1, -1
  -1, -1, -1, -1, -1, -1, -1, -1, -1, -1, -1,  1, -1
  -1, -1, -1, -1, -1,  0, -1, -1, -1, -1, -1, -1,  1
  -1, -1, -1, -1, -1,  1, -1, -1, -1, -1, -1, -1,  0
  -1, -1,  1, -1, -1, -1, -1, -1, -1, -1, -1, -1, -1

# goal states  

 -1, -1, -1, -1, -1, -1, -1, -1, -1, -1,  1, -1, -1
 -1,  1,  0,  0,  0,  0,  0,  0,  0,  0,  0,  0,  0
                  
# max task executions
# input_tasks_executions = [
#  1, % Check Inventory
#  1, % Receive Packing Slip
#  1, % Record Packing Slip
#  1, % Reserve Funds
#  1, % Receive Invoice
#  1, % Record Invoice
#  1, % Release Funds
#  1, % Issue Payment
#  1, % Create Order
#  1, % Reprocess Order
#  2, % Approve Order
#  1, % Send Order